(declare-const v0 Bool)
(declare-const v1 Bool)
(declare-const v2 Bool)
(declare-const v3 Bool)
(declare-const v4 Bool)
(assert (edge true (or v1 v2 (not v0))))
(assert (edge (or v2 (not v3) (not v0)) true))
(assert (edge true (or v2 (not v0))))
(assert (edge (or (not v0) (not v2) (not v4)) (or (not v1) (not v2))))
(assert (edge true (or (not v2) (not v3))))
(assert (not (edge v4 (or v1 v2))))